begin unit_cell_cart
Ang
   2.943409850   0.000000000   0.000000000
   1.471704925   2.549067704   0.000000000
   1.471704925   0.849689235   2.403281123
end unit_cell_cart

begin atoms_frac
Ni            0.0000000000        0.0000000000       -0.0000000000
O             0.5000000000        0.5000000000        0.5000000000
end atoms_frac

! system
num_wann = 8
num_bands = 40
mp_grid 10 10 10

! job control
!exclude_bands : 51-80
iprint = 2
kmesh_tol = 0.0001

! plotting
wannier_plot = false
wannier_plot_supercell = 3
bands_plot = true
bands_num_points = 50
bands_plot_format = gnuplot
write_hr = true

! disentanglement
!dis_win_min = 11.75
!dis_win_max = 18.5
dis_froz_min = 7
dis_froz_max = 17
dis_num_iter = 2000
guiding_centres=true
dis_conv_tol = 1.0E-12
!dis_mix_ratio = 0.9

! wannierisation
num_iter = 0
conv_window = 10
conv_tol = 1e-12

! pp tools
kpath = true
kpath_task = bands
kpath_bands_colour = spin
kpath_num_points=500
begin kpoint_path
L 0.00 0.00 0.50 G 0.00 0.00 0.00
G 0.00 0.00 0.00 X 0.50 0.00 0.50  
X 0.50 0.00 0.50 W 0.25 -0.25 0.5
W 0.25 -0.25 0.5 L 0.00 0.00 0.50
L 0.00 0.00 0.50 K 0.00 -0.375 0.375
K 0.00 -0.375 0.375 G 0.00 0.00 0.00
end kpoint_path

kslice = true
kslice_task = fermi_lines
fermi_energy = 15.514
kslice_2dkmesh = 200 200
kslice_corner =  0.00  0.00  0.00
kslice_b1 =     -0.25  0.25  0.25
kslice_b2 =      0.25 -0.25  0.25
!kslice_fermi_lines_colour = spin

dos = true
!dos_project = 3
!dos_energy_min = 8.
!dos_energy_max = 13.
dos_kmesh = 50
!dos_adpt_smr = false
!dos_smr_type = gauss
!dos_smr_fixed_en_width = 0.05

begin projections
Ni:d
O:p
end projections
!auto_projections = .true.

begin kpoints
  0.00000000  0.00000000  0.00000000  1.000000e-03 
  0.00000000  0.00000000  0.10000000  1.000000e-03 
  0.00000000  0.00000000  0.20000000  1.000000e-03 
  0.00000000  0.00000000  0.30000000  1.000000e-03 
  0.00000000  0.00000000  0.40000000  1.000000e-03 
  0.00000000  0.00000000  0.50000000  1.000000e-03 
  0.00000000  0.00000000  0.60000000  1.000000e-03 
  0.00000000  0.00000000  0.70000000  1.000000e-03 
  0.00000000  0.00000000  0.80000000  1.000000e-03 
  0.00000000  0.00000000  0.90000000  1.000000e-03 
  0.00000000  0.10000000  0.00000000  1.000000e-03 
  0.00000000  0.10000000  0.10000000  1.000000e-03 
  0.00000000  0.10000000  0.20000000  1.000000e-03 
  0.00000000  0.10000000  0.30000000  1.000000e-03 
  0.00000000  0.10000000  0.40000000  1.000000e-03 
  0.00000000  0.10000000  0.50000000  1.000000e-03 
  0.00000000  0.10000000  0.60000000  1.000000e-03 
  0.00000000  0.10000000  0.70000000  1.000000e-03 
  0.00000000  0.10000000  0.80000000  1.000000e-03 
  0.00000000  0.10000000  0.90000000  1.000000e-03 
  0.00000000  0.20000000  0.00000000  1.000000e-03 
  0.00000000  0.20000000  0.10000000  1.000000e-03 
  0.00000000  0.20000000  0.20000000  1.000000e-03 
  0.00000000  0.20000000  0.30000000  1.000000e-03 
  0.00000000  0.20000000  0.40000000  1.000000e-03 
  0.00000000  0.20000000  0.50000000  1.000000e-03 
  0.00000000  0.20000000  0.60000000  1.000000e-03 
  0.00000000  0.20000000  0.70000000  1.000000e-03 
  0.00000000  0.20000000  0.80000000  1.000000e-03 
  0.00000000  0.20000000  0.90000000  1.000000e-03 
  0.00000000  0.30000000  0.00000000  1.000000e-03 
  0.00000000  0.30000000  0.10000000  1.000000e-03 
  0.00000000  0.30000000  0.20000000  1.000000e-03 
  0.00000000  0.30000000  0.30000000  1.000000e-03 
  0.00000000  0.30000000  0.40000000  1.000000e-03 
  0.00000000  0.30000000  0.50000000  1.000000e-03 
  0.00000000  0.30000000  0.60000000  1.000000e-03 
  0.00000000  0.30000000  0.70000000  1.000000e-03 
  0.00000000  0.30000000  0.80000000  1.000000e-03 
  0.00000000  0.30000000  0.90000000  1.000000e-03 
  0.00000000  0.40000000  0.00000000  1.000000e-03 
  0.00000000  0.40000000  0.10000000  1.000000e-03 
  0.00000000  0.40000000  0.20000000  1.000000e-03 
  0.00000000  0.40000000  0.30000000  1.000000e-03 
  0.00000000  0.40000000  0.40000000  1.000000e-03 
  0.00000000  0.40000000  0.50000000  1.000000e-03 
  0.00000000  0.40000000  0.60000000  1.000000e-03 
  0.00000000  0.40000000  0.70000000  1.000000e-03 
  0.00000000  0.40000000  0.80000000  1.000000e-03 
  0.00000000  0.40000000  0.90000000  1.000000e-03 
  0.00000000  0.50000000  0.00000000  1.000000e-03 
  0.00000000  0.50000000  0.10000000  1.000000e-03 
  0.00000000  0.50000000  0.20000000  1.000000e-03 
  0.00000000  0.50000000  0.30000000  1.000000e-03 
  0.00000000  0.50000000  0.40000000  1.000000e-03 
  0.00000000  0.50000000  0.50000000  1.000000e-03 
  0.00000000  0.50000000  0.60000000  1.000000e-03 
  0.00000000  0.50000000  0.70000000  1.000000e-03 
  0.00000000  0.50000000  0.80000000  1.000000e-03 
  0.00000000  0.50000000  0.90000000  1.000000e-03 
  0.00000000  0.60000000  0.00000000  1.000000e-03 
  0.00000000  0.60000000  0.10000000  1.000000e-03 
  0.00000000  0.60000000  0.20000000  1.000000e-03 
  0.00000000  0.60000000  0.30000000  1.000000e-03 
  0.00000000  0.60000000  0.40000000  1.000000e-03 
  0.00000000  0.60000000  0.50000000  1.000000e-03 
  0.00000000  0.60000000  0.60000000  1.000000e-03 
  0.00000000  0.60000000  0.70000000  1.000000e-03 
  0.00000000  0.60000000  0.80000000  1.000000e-03 
  0.00000000  0.60000000  0.90000000  1.000000e-03 
  0.00000000  0.70000000  0.00000000  1.000000e-03 
  0.00000000  0.70000000  0.10000000  1.000000e-03 
  0.00000000  0.70000000  0.20000000  1.000000e-03 
  0.00000000  0.70000000  0.30000000  1.000000e-03 
  0.00000000  0.70000000  0.40000000  1.000000e-03 
  0.00000000  0.70000000  0.50000000  1.000000e-03 
  0.00000000  0.70000000  0.60000000  1.000000e-03 
  0.00000000  0.70000000  0.70000000  1.000000e-03 
  0.00000000  0.70000000  0.80000000  1.000000e-03 
  0.00000000  0.70000000  0.90000000  1.000000e-03 
  0.00000000  0.80000000  0.00000000  1.000000e-03 
  0.00000000  0.80000000  0.10000000  1.000000e-03 
  0.00000000  0.80000000  0.20000000  1.000000e-03 
  0.00000000  0.80000000  0.30000000  1.000000e-03 
  0.00000000  0.80000000  0.40000000  1.000000e-03 
  0.00000000  0.80000000  0.50000000  1.000000e-03 
  0.00000000  0.80000000  0.60000000  1.000000e-03 
  0.00000000  0.80000000  0.70000000  1.000000e-03 
  0.00000000  0.80000000  0.80000000  1.000000e-03 
  0.00000000  0.80000000  0.90000000  1.000000e-03 
  0.00000000  0.90000000  0.00000000  1.000000e-03 
  0.00000000  0.90000000  0.10000000  1.000000e-03 
  0.00000000  0.90000000  0.20000000  1.000000e-03 
  0.00000000  0.90000000  0.30000000  1.000000e-03 
  0.00000000  0.90000000  0.40000000  1.000000e-03 
  0.00000000  0.90000000  0.50000000  1.000000e-03 
  0.00000000  0.90000000  0.60000000  1.000000e-03 
  0.00000000  0.90000000  0.70000000  1.000000e-03 
  0.00000000  0.90000000  0.80000000  1.000000e-03 
  0.00000000  0.90000000  0.90000000  1.000000e-03 
  0.10000000  0.00000000  0.00000000  1.000000e-03 
  0.10000000  0.00000000  0.10000000  1.000000e-03 
  0.10000000  0.00000000  0.20000000  1.000000e-03 
  0.10000000  0.00000000  0.30000000  1.000000e-03 
  0.10000000  0.00000000  0.40000000  1.000000e-03 
  0.10000000  0.00000000  0.50000000  1.000000e-03 
  0.10000000  0.00000000  0.60000000  1.000000e-03 
  0.10000000  0.00000000  0.70000000  1.000000e-03 
  0.10000000  0.00000000  0.80000000  1.000000e-03 
  0.10000000  0.00000000  0.90000000  1.000000e-03 
  0.10000000  0.10000000  0.00000000  1.000000e-03 
  0.10000000  0.10000000  0.10000000  1.000000e-03 
  0.10000000  0.10000000  0.20000000  1.000000e-03 
  0.10000000  0.10000000  0.30000000  1.000000e-03 
  0.10000000  0.10000000  0.40000000  1.000000e-03 
  0.10000000  0.10000000  0.50000000  1.000000e-03 
  0.10000000  0.10000000  0.60000000  1.000000e-03 
  0.10000000  0.10000000  0.70000000  1.000000e-03 
  0.10000000  0.10000000  0.80000000  1.000000e-03 
  0.10000000  0.10000000  0.90000000  1.000000e-03 
  0.10000000  0.20000000  0.00000000  1.000000e-03 
  0.10000000  0.20000000  0.10000000  1.000000e-03 
  0.10000000  0.20000000  0.20000000  1.000000e-03 
  0.10000000  0.20000000  0.30000000  1.000000e-03 
  0.10000000  0.20000000  0.40000000  1.000000e-03 
  0.10000000  0.20000000  0.50000000  1.000000e-03 
  0.10000000  0.20000000  0.60000000  1.000000e-03 
  0.10000000  0.20000000  0.70000000  1.000000e-03 
  0.10000000  0.20000000  0.80000000  1.000000e-03 
  0.10000000  0.20000000  0.90000000  1.000000e-03 
  0.10000000  0.30000000  0.00000000  1.000000e-03 
  0.10000000  0.30000000  0.10000000  1.000000e-03 
  0.10000000  0.30000000  0.20000000  1.000000e-03 
  0.10000000  0.30000000  0.30000000  1.000000e-03 
  0.10000000  0.30000000  0.40000000  1.000000e-03 
  0.10000000  0.30000000  0.50000000  1.000000e-03 
  0.10000000  0.30000000  0.60000000  1.000000e-03 
  0.10000000  0.30000000  0.70000000  1.000000e-03 
  0.10000000  0.30000000  0.80000000  1.000000e-03 
  0.10000000  0.30000000  0.90000000  1.000000e-03 
  0.10000000  0.40000000  0.00000000  1.000000e-03 
  0.10000000  0.40000000  0.10000000  1.000000e-03 
  0.10000000  0.40000000  0.20000000  1.000000e-03 
  0.10000000  0.40000000  0.30000000  1.000000e-03 
  0.10000000  0.40000000  0.40000000  1.000000e-03 
  0.10000000  0.40000000  0.50000000  1.000000e-03 
  0.10000000  0.40000000  0.60000000  1.000000e-03 
  0.10000000  0.40000000  0.70000000  1.000000e-03 
  0.10000000  0.40000000  0.80000000  1.000000e-03 
  0.10000000  0.40000000  0.90000000  1.000000e-03 
  0.10000000  0.50000000  0.00000000  1.000000e-03 
  0.10000000  0.50000000  0.10000000  1.000000e-03 
  0.10000000  0.50000000  0.20000000  1.000000e-03 
  0.10000000  0.50000000  0.30000000  1.000000e-03 
  0.10000000  0.50000000  0.40000000  1.000000e-03 
  0.10000000  0.50000000  0.50000000  1.000000e-03 
  0.10000000  0.50000000  0.60000000  1.000000e-03 
  0.10000000  0.50000000  0.70000000  1.000000e-03 
  0.10000000  0.50000000  0.80000000  1.000000e-03 
  0.10000000  0.50000000  0.90000000  1.000000e-03 
  0.10000000  0.60000000  0.00000000  1.000000e-03 
  0.10000000  0.60000000  0.10000000  1.000000e-03 
  0.10000000  0.60000000  0.20000000  1.000000e-03 
  0.10000000  0.60000000  0.30000000  1.000000e-03 
  0.10000000  0.60000000  0.40000000  1.000000e-03 
  0.10000000  0.60000000  0.50000000  1.000000e-03 
  0.10000000  0.60000000  0.60000000  1.000000e-03 
  0.10000000  0.60000000  0.70000000  1.000000e-03 
  0.10000000  0.60000000  0.80000000  1.000000e-03 
  0.10000000  0.60000000  0.90000000  1.000000e-03 
  0.10000000  0.70000000  0.00000000  1.000000e-03 
  0.10000000  0.70000000  0.10000000  1.000000e-03 
  0.10000000  0.70000000  0.20000000  1.000000e-03 
  0.10000000  0.70000000  0.30000000  1.000000e-03 
  0.10000000  0.70000000  0.40000000  1.000000e-03 
  0.10000000  0.70000000  0.50000000  1.000000e-03 
  0.10000000  0.70000000  0.60000000  1.000000e-03 
  0.10000000  0.70000000  0.70000000  1.000000e-03 
  0.10000000  0.70000000  0.80000000  1.000000e-03 
  0.10000000  0.70000000  0.90000000  1.000000e-03 
  0.10000000  0.80000000  0.00000000  1.000000e-03 
  0.10000000  0.80000000  0.10000000  1.000000e-03 
  0.10000000  0.80000000  0.20000000  1.000000e-03 
  0.10000000  0.80000000  0.30000000  1.000000e-03 
  0.10000000  0.80000000  0.40000000  1.000000e-03 
  0.10000000  0.80000000  0.50000000  1.000000e-03 
  0.10000000  0.80000000  0.60000000  1.000000e-03 
  0.10000000  0.80000000  0.70000000  1.000000e-03 
  0.10000000  0.80000000  0.80000000  1.000000e-03 
  0.10000000  0.80000000  0.90000000  1.000000e-03 
  0.10000000  0.90000000  0.00000000  1.000000e-03 
  0.10000000  0.90000000  0.10000000  1.000000e-03 
  0.10000000  0.90000000  0.20000000  1.000000e-03 
  0.10000000  0.90000000  0.30000000  1.000000e-03 
  0.10000000  0.90000000  0.40000000  1.000000e-03 
  0.10000000  0.90000000  0.50000000  1.000000e-03 
  0.10000000  0.90000000  0.60000000  1.000000e-03 
  0.10000000  0.90000000  0.70000000  1.000000e-03 
  0.10000000  0.90000000  0.80000000  1.000000e-03 
  0.10000000  0.90000000  0.90000000  1.000000e-03 
  0.20000000  0.00000000  0.00000000  1.000000e-03 
  0.20000000  0.00000000  0.10000000  1.000000e-03 
  0.20000000  0.00000000  0.20000000  1.000000e-03 
  0.20000000  0.00000000  0.30000000  1.000000e-03 
  0.20000000  0.00000000  0.40000000  1.000000e-03 
  0.20000000  0.00000000  0.50000000  1.000000e-03 
  0.20000000  0.00000000  0.60000000  1.000000e-03 
  0.20000000  0.00000000  0.70000000  1.000000e-03 
  0.20000000  0.00000000  0.80000000  1.000000e-03 
  0.20000000  0.00000000  0.90000000  1.000000e-03 
  0.20000000  0.10000000  0.00000000  1.000000e-03 
  0.20000000  0.10000000  0.10000000  1.000000e-03 
  0.20000000  0.10000000  0.20000000  1.000000e-03 
  0.20000000  0.10000000  0.30000000  1.000000e-03 
  0.20000000  0.10000000  0.40000000  1.000000e-03 
  0.20000000  0.10000000  0.50000000  1.000000e-03 
  0.20000000  0.10000000  0.60000000  1.000000e-03 
  0.20000000  0.10000000  0.70000000  1.000000e-03 
  0.20000000  0.10000000  0.80000000  1.000000e-03 
  0.20000000  0.10000000  0.90000000  1.000000e-03 
  0.20000000  0.20000000  0.00000000  1.000000e-03 
  0.20000000  0.20000000  0.10000000  1.000000e-03 
  0.20000000  0.20000000  0.20000000  1.000000e-03 
  0.20000000  0.20000000  0.30000000  1.000000e-03 
  0.20000000  0.20000000  0.40000000  1.000000e-03 
  0.20000000  0.20000000  0.50000000  1.000000e-03 
  0.20000000  0.20000000  0.60000000  1.000000e-03 
  0.20000000  0.20000000  0.70000000  1.000000e-03 
  0.20000000  0.20000000  0.80000000  1.000000e-03 
  0.20000000  0.20000000  0.90000000  1.000000e-03 
  0.20000000  0.30000000  0.00000000  1.000000e-03 
  0.20000000  0.30000000  0.10000000  1.000000e-03 
  0.20000000  0.30000000  0.20000000  1.000000e-03 
  0.20000000  0.30000000  0.30000000  1.000000e-03 
  0.20000000  0.30000000  0.40000000  1.000000e-03 
  0.20000000  0.30000000  0.50000000  1.000000e-03 
  0.20000000  0.30000000  0.60000000  1.000000e-03 
  0.20000000  0.30000000  0.70000000  1.000000e-03 
  0.20000000  0.30000000  0.80000000  1.000000e-03 
  0.20000000  0.30000000  0.90000000  1.000000e-03 
  0.20000000  0.40000000  0.00000000  1.000000e-03 
  0.20000000  0.40000000  0.10000000  1.000000e-03 
  0.20000000  0.40000000  0.20000000  1.000000e-03 
  0.20000000  0.40000000  0.30000000  1.000000e-03 
  0.20000000  0.40000000  0.40000000  1.000000e-03 
  0.20000000  0.40000000  0.50000000  1.000000e-03 
  0.20000000  0.40000000  0.60000000  1.000000e-03 
  0.20000000  0.40000000  0.70000000  1.000000e-03 
  0.20000000  0.40000000  0.80000000  1.000000e-03 
  0.20000000  0.40000000  0.90000000  1.000000e-03 
  0.20000000  0.50000000  0.00000000  1.000000e-03 
  0.20000000  0.50000000  0.10000000  1.000000e-03 
  0.20000000  0.50000000  0.20000000  1.000000e-03 
  0.20000000  0.50000000  0.30000000  1.000000e-03 
  0.20000000  0.50000000  0.40000000  1.000000e-03 
  0.20000000  0.50000000  0.50000000  1.000000e-03 
  0.20000000  0.50000000  0.60000000  1.000000e-03 
  0.20000000  0.50000000  0.70000000  1.000000e-03 
  0.20000000  0.50000000  0.80000000  1.000000e-03 
  0.20000000  0.50000000  0.90000000  1.000000e-03 
  0.20000000  0.60000000  0.00000000  1.000000e-03 
  0.20000000  0.60000000  0.10000000  1.000000e-03 
  0.20000000  0.60000000  0.20000000  1.000000e-03 
  0.20000000  0.60000000  0.30000000  1.000000e-03 
  0.20000000  0.60000000  0.40000000  1.000000e-03 
  0.20000000  0.60000000  0.50000000  1.000000e-03 
  0.20000000  0.60000000  0.60000000  1.000000e-03 
  0.20000000  0.60000000  0.70000000  1.000000e-03 
  0.20000000  0.60000000  0.80000000  1.000000e-03 
  0.20000000  0.60000000  0.90000000  1.000000e-03 
  0.20000000  0.70000000  0.00000000  1.000000e-03 
  0.20000000  0.70000000  0.10000000  1.000000e-03 
  0.20000000  0.70000000  0.20000000  1.000000e-03 
  0.20000000  0.70000000  0.30000000  1.000000e-03 
  0.20000000  0.70000000  0.40000000  1.000000e-03 
  0.20000000  0.70000000  0.50000000  1.000000e-03 
  0.20000000  0.70000000  0.60000000  1.000000e-03 
  0.20000000  0.70000000  0.70000000  1.000000e-03 
  0.20000000  0.70000000  0.80000000  1.000000e-03 
  0.20000000  0.70000000  0.90000000  1.000000e-03 
  0.20000000  0.80000000  0.00000000  1.000000e-03 
  0.20000000  0.80000000  0.10000000  1.000000e-03 
  0.20000000  0.80000000  0.20000000  1.000000e-03 
  0.20000000  0.80000000  0.30000000  1.000000e-03 
  0.20000000  0.80000000  0.40000000  1.000000e-03 
  0.20000000  0.80000000  0.50000000  1.000000e-03 
  0.20000000  0.80000000  0.60000000  1.000000e-03 
  0.20000000  0.80000000  0.70000000  1.000000e-03 
  0.20000000  0.80000000  0.80000000  1.000000e-03 
  0.20000000  0.80000000  0.90000000  1.000000e-03 
  0.20000000  0.90000000  0.00000000  1.000000e-03 
  0.20000000  0.90000000  0.10000000  1.000000e-03 
  0.20000000  0.90000000  0.20000000  1.000000e-03 
  0.20000000  0.90000000  0.30000000  1.000000e-03 
  0.20000000  0.90000000  0.40000000  1.000000e-03 
  0.20000000  0.90000000  0.50000000  1.000000e-03 
  0.20000000  0.90000000  0.60000000  1.000000e-03 
  0.20000000  0.90000000  0.70000000  1.000000e-03 
  0.20000000  0.90000000  0.80000000  1.000000e-03 
  0.20000000  0.90000000  0.90000000  1.000000e-03 
  0.30000000  0.00000000  0.00000000  1.000000e-03 
  0.30000000  0.00000000  0.10000000  1.000000e-03 
  0.30000000  0.00000000  0.20000000  1.000000e-03 
  0.30000000  0.00000000  0.30000000  1.000000e-03 
  0.30000000  0.00000000  0.40000000  1.000000e-03 
  0.30000000  0.00000000  0.50000000  1.000000e-03 
  0.30000000  0.00000000  0.60000000  1.000000e-03 
  0.30000000  0.00000000  0.70000000  1.000000e-03 
  0.30000000  0.00000000  0.80000000  1.000000e-03 
  0.30000000  0.00000000  0.90000000  1.000000e-03 
  0.30000000  0.10000000  0.00000000  1.000000e-03 
  0.30000000  0.10000000  0.10000000  1.000000e-03 
  0.30000000  0.10000000  0.20000000  1.000000e-03 
  0.30000000  0.10000000  0.30000000  1.000000e-03 
  0.30000000  0.10000000  0.40000000  1.000000e-03 
  0.30000000  0.10000000  0.50000000  1.000000e-03 
  0.30000000  0.10000000  0.60000000  1.000000e-03 
  0.30000000  0.10000000  0.70000000  1.000000e-03 
  0.30000000  0.10000000  0.80000000  1.000000e-03 
  0.30000000  0.10000000  0.90000000  1.000000e-03 
  0.30000000  0.20000000  0.00000000  1.000000e-03 
  0.30000000  0.20000000  0.10000000  1.000000e-03 
  0.30000000  0.20000000  0.20000000  1.000000e-03 
  0.30000000  0.20000000  0.30000000  1.000000e-03 
  0.30000000  0.20000000  0.40000000  1.000000e-03 
  0.30000000  0.20000000  0.50000000  1.000000e-03 
  0.30000000  0.20000000  0.60000000  1.000000e-03 
  0.30000000  0.20000000  0.70000000  1.000000e-03 
  0.30000000  0.20000000  0.80000000  1.000000e-03 
  0.30000000  0.20000000  0.90000000  1.000000e-03 
  0.30000000  0.30000000  0.00000000  1.000000e-03 
  0.30000000  0.30000000  0.10000000  1.000000e-03 
  0.30000000  0.30000000  0.20000000  1.000000e-03 
  0.30000000  0.30000000  0.30000000  1.000000e-03 
  0.30000000  0.30000000  0.40000000  1.000000e-03 
  0.30000000  0.30000000  0.50000000  1.000000e-03 
  0.30000000  0.30000000  0.60000000  1.000000e-03 
  0.30000000  0.30000000  0.70000000  1.000000e-03 
  0.30000000  0.30000000  0.80000000  1.000000e-03 
  0.30000000  0.30000000  0.90000000  1.000000e-03 
  0.30000000  0.40000000  0.00000000  1.000000e-03 
  0.30000000  0.40000000  0.10000000  1.000000e-03 
  0.30000000  0.40000000  0.20000000  1.000000e-03 
  0.30000000  0.40000000  0.30000000  1.000000e-03 
  0.30000000  0.40000000  0.40000000  1.000000e-03 
  0.30000000  0.40000000  0.50000000  1.000000e-03 
  0.30000000  0.40000000  0.60000000  1.000000e-03 
  0.30000000  0.40000000  0.70000000  1.000000e-03 
  0.30000000  0.40000000  0.80000000  1.000000e-03 
  0.30000000  0.40000000  0.90000000  1.000000e-03 
  0.30000000  0.50000000  0.00000000  1.000000e-03 
  0.30000000  0.50000000  0.10000000  1.000000e-03 
  0.30000000  0.50000000  0.20000000  1.000000e-03 
  0.30000000  0.50000000  0.30000000  1.000000e-03 
  0.30000000  0.50000000  0.40000000  1.000000e-03 
  0.30000000  0.50000000  0.50000000  1.000000e-03 
  0.30000000  0.50000000  0.60000000  1.000000e-03 
  0.30000000  0.50000000  0.70000000  1.000000e-03 
  0.30000000  0.50000000  0.80000000  1.000000e-03 
  0.30000000  0.50000000  0.90000000  1.000000e-03 
  0.30000000  0.60000000  0.00000000  1.000000e-03 
  0.30000000  0.60000000  0.10000000  1.000000e-03 
  0.30000000  0.60000000  0.20000000  1.000000e-03 
  0.30000000  0.60000000  0.30000000  1.000000e-03 
  0.30000000  0.60000000  0.40000000  1.000000e-03 
  0.30000000  0.60000000  0.50000000  1.000000e-03 
  0.30000000  0.60000000  0.60000000  1.000000e-03 
  0.30000000  0.60000000  0.70000000  1.000000e-03 
  0.30000000  0.60000000  0.80000000  1.000000e-03 
  0.30000000  0.60000000  0.90000000  1.000000e-03 
  0.30000000  0.70000000  0.00000000  1.000000e-03 
  0.30000000  0.70000000  0.10000000  1.000000e-03 
  0.30000000  0.70000000  0.20000000  1.000000e-03 
  0.30000000  0.70000000  0.30000000  1.000000e-03 
  0.30000000  0.70000000  0.40000000  1.000000e-03 
  0.30000000  0.70000000  0.50000000  1.000000e-03 
  0.30000000  0.70000000  0.60000000  1.000000e-03 
  0.30000000  0.70000000  0.70000000  1.000000e-03 
  0.30000000  0.70000000  0.80000000  1.000000e-03 
  0.30000000  0.70000000  0.90000000  1.000000e-03 
  0.30000000  0.80000000  0.00000000  1.000000e-03 
  0.30000000  0.80000000  0.10000000  1.000000e-03 
  0.30000000  0.80000000  0.20000000  1.000000e-03 
  0.30000000  0.80000000  0.30000000  1.000000e-03 
  0.30000000  0.80000000  0.40000000  1.000000e-03 
  0.30000000  0.80000000  0.50000000  1.000000e-03 
  0.30000000  0.80000000  0.60000000  1.000000e-03 
  0.30000000  0.80000000  0.70000000  1.000000e-03 
  0.30000000  0.80000000  0.80000000  1.000000e-03 
  0.30000000  0.80000000  0.90000000  1.000000e-03 
  0.30000000  0.90000000  0.00000000  1.000000e-03 
  0.30000000  0.90000000  0.10000000  1.000000e-03 
  0.30000000  0.90000000  0.20000000  1.000000e-03 
  0.30000000  0.90000000  0.30000000  1.000000e-03 
  0.30000000  0.90000000  0.40000000  1.000000e-03 
  0.30000000  0.90000000  0.50000000  1.000000e-03 
  0.30000000  0.90000000  0.60000000  1.000000e-03 
  0.30000000  0.90000000  0.70000000  1.000000e-03 
  0.30000000  0.90000000  0.80000000  1.000000e-03 
  0.30000000  0.90000000  0.90000000  1.000000e-03 
  0.40000000  0.00000000  0.00000000  1.000000e-03 
  0.40000000  0.00000000  0.10000000  1.000000e-03 
  0.40000000  0.00000000  0.20000000  1.000000e-03 
  0.40000000  0.00000000  0.30000000  1.000000e-03 
  0.40000000  0.00000000  0.40000000  1.000000e-03 
  0.40000000  0.00000000  0.50000000  1.000000e-03 
  0.40000000  0.00000000  0.60000000  1.000000e-03 
  0.40000000  0.00000000  0.70000000  1.000000e-03 
  0.40000000  0.00000000  0.80000000  1.000000e-03 
  0.40000000  0.00000000  0.90000000  1.000000e-03 
  0.40000000  0.10000000  0.00000000  1.000000e-03 
  0.40000000  0.10000000  0.10000000  1.000000e-03 
  0.40000000  0.10000000  0.20000000  1.000000e-03 
  0.40000000  0.10000000  0.30000000  1.000000e-03 
  0.40000000  0.10000000  0.40000000  1.000000e-03 
  0.40000000  0.10000000  0.50000000  1.000000e-03 
  0.40000000  0.10000000  0.60000000  1.000000e-03 
  0.40000000  0.10000000  0.70000000  1.000000e-03 
  0.40000000  0.10000000  0.80000000  1.000000e-03 
  0.40000000  0.10000000  0.90000000  1.000000e-03 
  0.40000000  0.20000000  0.00000000  1.000000e-03 
  0.40000000  0.20000000  0.10000000  1.000000e-03 
  0.40000000  0.20000000  0.20000000  1.000000e-03 
  0.40000000  0.20000000  0.30000000  1.000000e-03 
  0.40000000  0.20000000  0.40000000  1.000000e-03 
  0.40000000  0.20000000  0.50000000  1.000000e-03 
  0.40000000  0.20000000  0.60000000  1.000000e-03 
  0.40000000  0.20000000  0.70000000  1.000000e-03 
  0.40000000  0.20000000  0.80000000  1.000000e-03 
  0.40000000  0.20000000  0.90000000  1.000000e-03 
  0.40000000  0.30000000  0.00000000  1.000000e-03 
  0.40000000  0.30000000  0.10000000  1.000000e-03 
  0.40000000  0.30000000  0.20000000  1.000000e-03 
  0.40000000  0.30000000  0.30000000  1.000000e-03 
  0.40000000  0.30000000  0.40000000  1.000000e-03 
  0.40000000  0.30000000  0.50000000  1.000000e-03 
  0.40000000  0.30000000  0.60000000  1.000000e-03 
  0.40000000  0.30000000  0.70000000  1.000000e-03 
  0.40000000  0.30000000  0.80000000  1.000000e-03 
  0.40000000  0.30000000  0.90000000  1.000000e-03 
  0.40000000  0.40000000  0.00000000  1.000000e-03 
  0.40000000  0.40000000  0.10000000  1.000000e-03 
  0.40000000  0.40000000  0.20000000  1.000000e-03 
  0.40000000  0.40000000  0.30000000  1.000000e-03 
  0.40000000  0.40000000  0.40000000  1.000000e-03 
  0.40000000  0.40000000  0.50000000  1.000000e-03 
  0.40000000  0.40000000  0.60000000  1.000000e-03 
  0.40000000  0.40000000  0.70000000  1.000000e-03 
  0.40000000  0.40000000  0.80000000  1.000000e-03 
  0.40000000  0.40000000  0.90000000  1.000000e-03 
  0.40000000  0.50000000  0.00000000  1.000000e-03 
  0.40000000  0.50000000  0.10000000  1.000000e-03 
  0.40000000  0.50000000  0.20000000  1.000000e-03 
  0.40000000  0.50000000  0.30000000  1.000000e-03 
  0.40000000  0.50000000  0.40000000  1.000000e-03 
  0.40000000  0.50000000  0.50000000  1.000000e-03 
  0.40000000  0.50000000  0.60000000  1.000000e-03 
  0.40000000  0.50000000  0.70000000  1.000000e-03 
  0.40000000  0.50000000  0.80000000  1.000000e-03 
  0.40000000  0.50000000  0.90000000  1.000000e-03 
  0.40000000  0.60000000  0.00000000  1.000000e-03 
  0.40000000  0.60000000  0.10000000  1.000000e-03 
  0.40000000  0.60000000  0.20000000  1.000000e-03 
  0.40000000  0.60000000  0.30000000  1.000000e-03 
  0.40000000  0.60000000  0.40000000  1.000000e-03 
  0.40000000  0.60000000  0.50000000  1.000000e-03 
  0.40000000  0.60000000  0.60000000  1.000000e-03 
  0.40000000  0.60000000  0.70000000  1.000000e-03 
  0.40000000  0.60000000  0.80000000  1.000000e-03 
  0.40000000  0.60000000  0.90000000  1.000000e-03 
  0.40000000  0.70000000  0.00000000  1.000000e-03 
  0.40000000  0.70000000  0.10000000  1.000000e-03 
  0.40000000  0.70000000  0.20000000  1.000000e-03 
  0.40000000  0.70000000  0.30000000  1.000000e-03 
  0.40000000  0.70000000  0.40000000  1.000000e-03 
  0.40000000  0.70000000  0.50000000  1.000000e-03 
  0.40000000  0.70000000  0.60000000  1.000000e-03 
  0.40000000  0.70000000  0.70000000  1.000000e-03 
  0.40000000  0.70000000  0.80000000  1.000000e-03 
  0.40000000  0.70000000  0.90000000  1.000000e-03 
  0.40000000  0.80000000  0.00000000  1.000000e-03 
  0.40000000  0.80000000  0.10000000  1.000000e-03 
  0.40000000  0.80000000  0.20000000  1.000000e-03 
  0.40000000  0.80000000  0.30000000  1.000000e-03 
  0.40000000  0.80000000  0.40000000  1.000000e-03 
  0.40000000  0.80000000  0.50000000  1.000000e-03 
  0.40000000  0.80000000  0.60000000  1.000000e-03 
  0.40000000  0.80000000  0.70000000  1.000000e-03 
  0.40000000  0.80000000  0.80000000  1.000000e-03 
  0.40000000  0.80000000  0.90000000  1.000000e-03 
  0.40000000  0.90000000  0.00000000  1.000000e-03 
  0.40000000  0.90000000  0.10000000  1.000000e-03 
  0.40000000  0.90000000  0.20000000  1.000000e-03 
  0.40000000  0.90000000  0.30000000  1.000000e-03 
  0.40000000  0.90000000  0.40000000  1.000000e-03 
  0.40000000  0.90000000  0.50000000  1.000000e-03 
  0.40000000  0.90000000  0.60000000  1.000000e-03 
  0.40000000  0.90000000  0.70000000  1.000000e-03 
  0.40000000  0.90000000  0.80000000  1.000000e-03 
  0.40000000  0.90000000  0.90000000  1.000000e-03 
  0.50000000  0.00000000  0.00000000  1.000000e-03 
  0.50000000  0.00000000  0.10000000  1.000000e-03 
  0.50000000  0.00000000  0.20000000  1.000000e-03 
  0.50000000  0.00000000  0.30000000  1.000000e-03 
  0.50000000  0.00000000  0.40000000  1.000000e-03 
  0.50000000  0.00000000  0.50000000  1.000000e-03 
  0.50000000  0.00000000  0.60000000  1.000000e-03 
  0.50000000  0.00000000  0.70000000  1.000000e-03 
  0.50000000  0.00000000  0.80000000  1.000000e-03 
  0.50000000  0.00000000  0.90000000  1.000000e-03 
  0.50000000  0.10000000  0.00000000  1.000000e-03 
  0.50000000  0.10000000  0.10000000  1.000000e-03 
  0.50000000  0.10000000  0.20000000  1.000000e-03 
  0.50000000  0.10000000  0.30000000  1.000000e-03 
  0.50000000  0.10000000  0.40000000  1.000000e-03 
  0.50000000  0.10000000  0.50000000  1.000000e-03 
  0.50000000  0.10000000  0.60000000  1.000000e-03 
  0.50000000  0.10000000  0.70000000  1.000000e-03 
  0.50000000  0.10000000  0.80000000  1.000000e-03 
  0.50000000  0.10000000  0.90000000  1.000000e-03 
  0.50000000  0.20000000  0.00000000  1.000000e-03 
  0.50000000  0.20000000  0.10000000  1.000000e-03 
  0.50000000  0.20000000  0.20000000  1.000000e-03 
  0.50000000  0.20000000  0.30000000  1.000000e-03 
  0.50000000  0.20000000  0.40000000  1.000000e-03 
  0.50000000  0.20000000  0.50000000  1.000000e-03 
  0.50000000  0.20000000  0.60000000  1.000000e-03 
  0.50000000  0.20000000  0.70000000  1.000000e-03 
  0.50000000  0.20000000  0.80000000  1.000000e-03 
  0.50000000  0.20000000  0.90000000  1.000000e-03 
  0.50000000  0.30000000  0.00000000  1.000000e-03 
  0.50000000  0.30000000  0.10000000  1.000000e-03 
  0.50000000  0.30000000  0.20000000  1.000000e-03 
  0.50000000  0.30000000  0.30000000  1.000000e-03 
  0.50000000  0.30000000  0.40000000  1.000000e-03 
  0.50000000  0.30000000  0.50000000  1.000000e-03 
  0.50000000  0.30000000  0.60000000  1.000000e-03 
  0.50000000  0.30000000  0.70000000  1.000000e-03 
  0.50000000  0.30000000  0.80000000  1.000000e-03 
  0.50000000  0.30000000  0.90000000  1.000000e-03 
  0.50000000  0.40000000  0.00000000  1.000000e-03 
  0.50000000  0.40000000  0.10000000  1.000000e-03 
  0.50000000  0.40000000  0.20000000  1.000000e-03 
  0.50000000  0.40000000  0.30000000  1.000000e-03 